9 92 71 63 48 39 58 80 69 46 82 41 18 38 10 60 79 34 50 25 95 27 93 52 31 13 57 66 26 78 43 40 24 53 83 75 87 0 15 99 1 72 64 21 44 49 30 28 74 14 76 85 7 68 90 97 2 89 8 45 4 23 59 61 94 22 5 56 96 12 98 55 73 16 65 36 33 42 19 37 3 32 84 91 54 70 86 17 11 51 6 77 47 62 81 67 88 20 35 29 

